p cnf 820 2310
c ind 661 675 676 761 771 775 683 687 688 717 0
c ind 727 737 741 751 814 815 816 817 590 595 0
c ind 600 604 627 630 779 789 793 797 801 805 0
c ind 809 813 601 607 610 614 617 620 624 634 0
c ind 637 640 647 652 656 657 658 660 662 666 0
c ind 669 672 674 678 679 680 684 686 690 691 0
c ind 692 694 695 696 701 585 644 650 653 654 0
c ind 682 698 699 700 611 631 641 659 663 681 0
c ind 685 697 621 655 677 689 673 693 651 802 0
c ind 591 592 597 671 757 767 770 774 780 781 0
c ind 792 796 798 806 808 810 812 587 596 670 0
c ind 706 720 723 733 754 768 776 778 782 788 0
c ind 803 612 613 616 619 628 633 665 739 744 0
c ind 747 755 756 758 759 764 766 769 772 783 0
c ind 784 785 786 787 800 804 807 586 593 594 0
c ind 615 618 632 646 664 734 735 740 748 749 0
c ind 752 753 762 763 765 790 791 794 795 811 0
c ind 589 598 599 603 606 609 635 636 639 668 0
c ind 711 726 728 729 730 731 732 736 738 760 0
c ind 773 605 622 625 626 629 638 643 645 649 0
c ind 712 713 742 743 746 799 588 642 648 714 0
c ind 715 716 718 719 721 722 724 725 745 777 0
c ind 623 602 608 703 704 709 710 750 667 702 0
c ind 705 707 708 818 582 583 581 584 1 0
c ret 527 536 537 538 539 540 541 542 543 544 0
c ret 528 545 546 547 548 549 550 551 552 553 0
c ret 554 529 555 556 557 558 559 560 561 562 0
c ret 563 530 564 565 566 567 568 569 570 571 0
c ret 531 572 573 574 575 576 577 578 579 580 0
c ret 532 533 534 535 0
2 -3 -89 -152 -211 0
-2 211 0
-2 3 0
-2 152 0
-2 89 0
3 -4 -47 -64 -79 0
-3 79 0
-3 4 0
-3 64 0
-3 47 0
4 -5 -25 35 40 0
-4 25 0
-4 -40 0
-4 5 0
-4 -35 0
5 11 -15 -806 0
5 -6 11 -15 0
-5 15 0
-5 -11 0
-5 6 806 0
6 -7 -8 -9 -10 0
-6 10 0
-6 7 0
-6 9 0
-6 8 0
7 753 762 763 0
-7 -753 0
-7 -763 0
-7 -762 0
8 552 554 571 752 0
-8 -752 0
-8 -571 0
-8 -552 0
-8 -554 0
9 556 557 0
-9 -556 0
-9 -557 0
10 566 567 0
-10 -566 0
-10 -567 0
11 13 772 0
11 12 772 0
11 14 772 0
-11 -772 0
-11 -12 -13 -14 0
-10 12 702 705 0
10 -12 0
-12 -705 0
-12 -702 0
13 554 555 557 0
-13 -554 0
-13 -557 0
-13 -555 0
14 568 576 742 743 0
-14 -743 0
-14 -742 0
-14 -568 0
-14 -576 0
15 16 -794 0
15 16 -21 -23 0
-15 -16 0
-15 21 794 0
-15 23 794 0
16 19 782 0
16 17 782 0
16 20 782 0
-16 -782 0
-16 -17 -19 -20 0
17 -18 566 0
-17 -566 0
-17 18 0
-9 18 555 0
-18 -555 0
9 -18 0
19 580 780 781 0
-19 -580 0
-19 -781 0
-19 -780 0
20 553 576 703 704 0
-20 -704 0
-20 -703 0
-20 -553 0
-20 -576 0
21 -22 567 576 0
-21 22 0
-21 -576 0
-21 -567 0
22 555 556 0
-22 -555 0
-22 -556 0
-19 23 -24 566 577 0
-23 -566 0
19 -23 0
-23 24 0
-23 -577 0
24 742 743 0
-24 -742 0
-24 -743 0
25 31 -785 0
25 -26 -29 31 0
-25 -31 0
-25 29 785 0
-25 26 785 0
26 -27 544 0
-26 -544 0
-26 27 0
27 -28 546 0
-27 -546 0
-27 28 0
28 547 548 0
-28 -547 0
-28 -548 0
29 -30 563 710 0
-29 30 0
-29 -710 0
-29 -563 0
30 574 579 0
-30 -574 0
-30 -579 0
31 33 738 0
31 32 738 0
-31 -738 0
-31 -32 -33 0
32 554 576 728 729 0
-32 -729 0
-32 -728 0
-32 -554 0
-32 -576 0
-10 -22 33 -34 577 0
-33 -577 0
-33 34 0
22 -33 0
10 -33 0
34 718 719 0
-34 -718 0
-34 -719 0
35 -36 -37 -39 683 0
-35 -683 0
-35 39 0
-35 37 0
-35 36 0
-27 36 544 545 0
27 -36 0
-36 -545 0
-36 -544 0
37 -38 -667 -668 0
-37 667 0
-37 668 0
-37 38 0
38 563 574 0
-38 -563 0
-38 -574 0
39 -645 -646 0
-39 645 0
-39 646 0
40 -41 -42 -585 -601 0
-40 42 0
-40 585 0
-40 41 0
-40 601 0
41 -611 -621 -631 -641 0
-41 641 0
-41 611 0
-41 631 0
-41 621 0
42 -43 -44 -45 -46 0
-42 46 0
-42 43 0
-42 45 0
-42 44 0
43 -673 -677 -681 -685 0
-43 685 0
-43 673 0
-43 681 0
-43 677 0
44 -651 -655 -659 -663 0
-44 663 0
-44 651 0
-44 659 0
-44 655 0
45 -699 -700 -701 0
-45 699 0
-45 700 0
-45 701 0
46 -689 -693 -697 -698 0
-46 698 0
-46 689 0
-46 697 0
-46 693 0
36 47 51 56 0
47 48 51 56 0
-47 -56 0
-47 -51 0
-36 -47 -48 0
-39 48 -49 -50 661 0
-48 -661 0
-48 50 0
-48 49 0
39 -48 0
49 -593 -594 0
-49 593 0
-49 594 0
50 542 543 0
-50 -542 0
-50 -543 0
51 52 55 0
51 52 -529 728 0
-51 -52 0
-51 -55 529 0
-51 -55 -728 0
52 -53 530 -583 0
52 -53 -583 -731 0
-52 53 0
-52 583 0
-52 -530 731 0
53 -54 -746 0
53 -54 550 0
-53 54 0
-53 -550 746 0
54 532 559 0
54 -729 -742 0
54 532 -742 0
54 559 -729 0
-54 -532 729 0
-54 -559 742 0
55 583 -732 0
55 528 583 0
-55 -583 0
-55 -528 732 0
56 57 -62 -63 576 0
-56 -576 0
-56 63 0
-56 62 0
-56 -57 0
57 58 60 0
57 60 -688 0
57 59 60 0
-57 -60 0
-57 -58 -59 688 0
58 -608 -609 0
-58 608 0
-58 609 0
59 -638 -639 0
-59 638 0
-59 639 0
60 -61 -670 -671 676 0
-60 61 0
-60 670 0
-60 671 0
-60 -676 0
61 -628 -629 0
-61 628 0
-61 629 0
-13 62 556 0
-62 -556 0
13 -62 0
63 551 567 0
-63 -551 0
-63 -567 0
64 65 -792 0
64 65 -73 -77 0
-64 -65 0
-64 73 792 0
-64 77 792 0
65 68 810 0
65 66 810 0
-65 -810 0
-65 -66 -68 0
66 -67 534 0
-66 -534 0
-66 67 0
67 536 537 0
-67 -536 0
-67 -537 0
68 -69 -70 -71 -72 0
-68 72 0
-68 69 0
-68 71 0
-68 70 0
69 724 725 0
-69 -724 0
-69 -725 0
70 768 769 0
-70 -768 0
-70 -769 0
71 539 560 0
-71 -539 0
-71 -560 0
72 561 562 0
-72 -561 0
-72 -562 0
73 -74 -75 0
-73 74 0
-73 75 0
74 578 786 787 0
-74 -578 0
-74 -787 0
-74 -786 0
-71 75 -76 0
71 -75 0
-75 76 0
76 537 538 0
-76 -537 0
-76 -538 0
77 -78 724 725 0
-77 78 0
-77 -725 0
-77 -724 0
78 561 572 0
-78 -561 0
-78 -572 0
79 80 -777 0
79 80 -85 -87 0
-79 -80 0
-79 85 777 0
-79 87 777 0
80 82 770 0
80 81 770 0
80 83 770 0
-80 -770 0
-80 -81 -82 -83 0
-76 81 535 536 0
76 -81 0
-81 -536 0
-81 -535 0
82 534 768 769 0
-82 -534 0
-82 -769 0
-82 -768 0
83 -84 533 539 0
-83 84 0
-83 -539 0
-83 -533 0
84 714 715 0
-84 -714 0
-84 -715 0
85 -86 545 548 0
-85 86 0
-85 -548 0
-85 -545 0
86 563 564 0
-86 -563 0
-86 -564 0
87 -88 543 746 766 0
-87 88 0
-87 -766 0
-87 -543 0
-87 -746 0
88 546 547 0
-88 -546 0
-88 -547 0
89 -90 -108 -118 -140 0
-89 140 0
-89 90 0
-89 118 0
-89 108 0
90 -91 104 -744 0
90 -91 -102 104 0
-90 91 0
-90 -104 0
-90 102 744 0
91 92 -739 0
91 92 -97 -99 0
-91 -92 0
-91 97 739 0
-91 99 739 0
92 94 720 0
92 93 720 0
-92 -720 0
-92 -93 -94 0
93 554 555 718 719 0
-93 -719 0
-93 -718 0
-93 -554 0
-93 -555 0
-9 94 -95 -96 551 0
-94 -551 0
-94 96 0
-94 95 0
9 -94 0
95 702 705 0
-95 -702 0
-95 -705 0
96 567 576 0
-96 -567 0
-96 -576 0
97 -98 563 0
-97 -563 0
-97 98 0
98 545 546 547 0
-98 -545 0
-98 -547 0
-98 -546 0
99 -100 -101 564 575 0
-99 -564 0
-99 101 0
-99 100 0
-99 -575 0
100 574 721 722 0
-100 -574 0
-100 -722 0
-100 -721 0
101 731 732 0
-101 -731 0
-101 -732 0
-18 -32 102 -103 551 0
-102 -551 0
-102 103 0
32 -102 0
18 -102 0
103 567 742 743 0
-103 -567 0
-103 -743 0
-103 -742 0
104 105 723 0
100 104 723 0
104 106 723 0
-104 -723 0
-100 -104 -105 -106 0
-28 105 542 564 0
28 -105 0
-105 -564 0
-105 -542 0
106 -107 707 708 0
-106 107 0
-106 -708 0
-106 -707 0
107 545 546 0
-107 -545 0
-107 -546 0
108 -109 115 -788 0
108 -109 -114 115 0
-108 109 0
-108 -115 0
-108 114 788 0
109 112 -798 0
-19 109 -110 112 0
-109 -112 0
-109 110 798 0
19 -109 798 0
-96 110 -111 551 556 0
-110 -551 0
-110 111 0
96 -110 0
-110 -556 0
111 557 571 752 753 0
-111 -753 0
-111 -752 0
-111 -557 0
-111 -571 0
112 113 740 0
112 -535 736 0
112 113 736 0
-112 -736 -740 0
-112 -113 535 0
-112 -113 -736 0
-76 113 536 0
-113 -536 0
76 -113 0
-73 -84 114 535 572 0
-114 -535 0
84 -114 0
73 -114 0
-114 -572 0
115 116 747 0
105 115 747 0
115 117 747 0
-115 -747 0
-105 -115 -116 -117 0
-107 116 731 732 0
107 -116 0
-116 -732 0
-116 -731 0
117 574 745 746 0
-117 -574 0
-117 -746 0
-117 -745 0
118 -119 132 -136 0
118 -119 132 -711 0
-118 119 0
-118 -132 0
-118 136 711 0
119 125 126 0
119 -120 126 0
18 119 126 0
-119 -126 0
-18 -119 120 -125 0
120 122 124 0
120 121 122 0
120 122 -684 0
-120 -122 0
-120 -121 -124 684 0
121 -670 -671 0
-121 670 0
-121 671 0
122 -123 551 552 662 0
-122 123 0
-122 -662 0
-122 -551 0
-122 -552 0
123 -598 -599 0
-123 598 0
-123 599 0
124 566 576 0
-124 -566 0
-124 -576 0
125 553 554 -648 -649 0
-125 -553 0
-125 649 0
-125 648 0
-125 -554 0
126 127 -130 -131 564 0
-126 -564 0
-126 131 0
-126 130 0
-126 -127 0
38 127 129 0
127 129 -607 0
127 128 129 0
-127 -129 0
-38 -127 -128 607 0
128 -605 -606 0
-128 605 0
-128 606 0
-49 129 543 563 595 0
49 -129 0
-129 -595 0
-129 -543 0
-129 -563 0
130 570 -591 -592 0
-130 592 0
-130 591 0
-130 -570 0
-28 131 545 0
-131 -545 0
28 -131 0
132 134 706 0
132 133 706 0
-132 -706 0
-132 -133 -134 0
-22 133 553 554 0
22 -133 0
-133 -554 0
-133 -553 0
-95 -124 134 -135 577 0
-134 -577 0
124 -134 0
-134 135 0
95 -134 0
135 703 704 0
-135 -703 0
-135 -704 0
-97 136 -137 -138 -139 0
-136 139 0
97 -136 0
-136 138 0
-136 137 0
137 707 708 0
-137 -707 0
-137 -708 0
138 709 710 0
-138 -709 0
-138 -710 0
139 574 575 0
-139 -574 0
-139 -575 0
140 -141 147 -150 0
140 -141 147 -790 0
-140 141 0
-140 -147 0
-140 150 790 0
141 144 -733 0
-116 141 -142 144 0
-141 -144 0
-141 142 733 0
116 -141 733 0
-28 -38 142 -143 0
28 -142 0
38 -142 0
-142 143 0
143 544 709 710 0
-143 -544 0
-143 -710 0
-143 -709 0
144 145 812 0
93 144 812 0
144 146 812 0
-144 -812 0
-93 -144 -145 -146 0
145 552 762 763 0
-145 -552 0
-145 -763 0
-145 -762 0
-10 146 557 568 0
10 -146 0
-146 -568 0
-146 -557 0
147 148 757 0
85 147 757 0
147 149 757 0
-147 -757 0
-85 -147 -148 -149 0
148 570 574 756 0
-148 -570 0
-148 -756 0
-148 -574 0
149 565 731 732 755 0
-149 -755 0
-149 -732 0
-149 -565 0
-149 -731 0
-19 -34 150 -151 567 0
-150 -567 0
-150 151 0
34 -150 0
19 -150 0
-18 -124 151 0
18 -151 0
124 -151 0
152 -153 -172 -185 -201 0
-152 201 0
-152 153 0
-152 185 0
-152 172 0
153 -154 168 -811 0
153 -154 -163 168 0
-153 154 0
-153 -168 0
-153 163 811 0
154 159 -764 0
154 -155 -156 159 0
-154 -159 0
-154 156 764 0
-154 155 764 0
-133 155 703 0
-155 -703 0
133 -155 0
156 -157 -158 551 552 0
-156 -551 0
-156 158 0
-156 157 0
-156 -552 0
157 762 763 0
-157 -762 0
-157 -763 0
158 557 704 0
-158 -557 0
-158 -704 0
159 161 750 0
159 160 750 0
159 162 750 0
-159 -750 0
-159 -160 -161 -162 0
160 572 734 735 0
-160 -572 0
-160 -735 0
-160 -734 0
161 539 561 0
-161 -539 0
-161 -561 0
-76 162 748 749 0
76 -162 0
-162 -749 0
-162 -748 0
163 -164 -165 -166 -167 0
-163 167 0
-163 164 0
-163 166 0
-163 165 0
-107 164 548 0
-164 -548 0
107 -164 0
-86 165 543 565 0
86 -165 0
-165 -565 0
-165 -543 0
166 765 766 0
-166 -765 0
-166 -766 0
167 721 722 0
-167 -721 0
-167 -722 0
168 170 808 0
168 169 808 0
168 171 808 0
-168 -808 0
-168 -169 -170 -171 0
169 534 536 768 769 0
-169 -769 0
-169 -768 0
-169 -534 0
-169 -536 0
170 569 758 759 0
-170 -569 0
-170 -759 0
-170 -758 0
171 538 539 560 561 0
-171 -561 0
-171 -560 0
-171 -538 0
-171 -539 0
172 175 -178 -716 0
172 -173 175 -178 0
-172 178 0
-172 -175 0
-172 173 716 0
-81 173 -174 0
81 -173 0
-173 174 0
174 560 572 0
-174 -560 0
-174 -572 0
175 176 754 0
146 175 754 0
175 177 754 0
-175 -754 0
-146 -175 -176 -177 0
176 571 576 752 753 0
-176 -753 0
-176 -752 0
-176 -571 0
-176 -576 0
177 554 728 729 0
-177 -554 0
-177 -729 0
-177 -728 0
178 183 -774 0
178 -179 -180 183 0
-178 -183 0
-178 180 774 0
-178 179 774 0
-78 179 539 562 0
78 -179 0
-179 -562 0
-179 -539 0
-67 180 -181 -182 560 0
-180 -560 0
-180 182 0
-180 181 0
67 -180 0
181 748 749 0
-181 -748 0
-181 -749 0
182 712 713 0
-182 -712 0
-182 -713 0
162 183 796 0
74 183 796 0
183 184 796 0
-183 -796 0
-74 -162 -183 -184 0
-174 184 561 573 0
174 -184 0
-184 -573 0
-184 -561 0
173 185 -186 198 0
185 -186 196 198 0
-185 186 0
-185 -198 0
-173 -185 -196 0
186 192 194 0
186 -187 194 0
78 186 194 0
-186 -194 0
-78 -186 187 -192 0
187 188 190 0
187 190 -686 0
187 189 190 0
-187 -190 0
-187 -188 -189 686 0
188 -632 -633 0
-188 632 0
-188 633 0
189 -602 -603 0
-189 602 0
-189 603 0
190 -191 -664 -665 674 0
-190 191 0
-190 664 0
-190 665 0
-190 -674 0
191 -622 -623 0
-191 622 0
-191 623 0
-67 192 -193 0
67 -192 0
-192 193 0
193 533 538 539 0
-193 -533 0
-193 -539 0
-193 -538 0
117 194 773 0
106 194 773 0
194 195 773 0
-194 -773 0
-106 -117 -194 -195 0
195 548 563 564 565 0
-195 -565 0
-195 -564 0
-195 -548 0
-195 -563 0
-189 196 -197 573 690 0
-196 -573 0
-196 197 0
189 -196 0
-196 -690 0
197 -642 -643 0
-197 642 0
-197 643 0
198 199 767 0
143 198 767 0
198 200 767 0
-198 -767 0
-143 -198 -199 -200 0
-28 -107 199 0
28 -199 0
107 -199 0
200 542 543 765 766 0
-200 -766 0
-200 -765 0
-200 -542 0
-200 -543 0
201 -202 206 -210 0
201 -202 206 -778 0
-201 202 0
-201 -206 0
-201 210 778 0
202 203 -730 0
-155 202 203 -205 0
-202 -203 0
155 -202 730 0
-202 205 730 0
176 203 802 0
12 203 802 0
203 204 802 0
-203 -802 0
-12 -176 -203 -204 0
-9 204 554 0
-204 -554 0
9 -204 0
-124 -158 205 728 729 0
-205 -728 0
158 -205 0
124 -205 0
-205 -729 0
206 208 818 0
206 207 818 0
206 209 818 0
-206 -818 0
-206 -207 -208 -209 0
207 814 815 816 817 0
-207 -817 0
-207 -816 0
-207 -814 0
-207 -815 0
208 801 805 809 813 0
-208 -813 0
-208 -809 0
-208 -801 0
-208 -805 0
209 779 789 793 797 0
-209 -797 0
-209 -793 0
-209 -779 0
-209 -789 0
-75 -169 -181 210 561 0
-210 -561 0
169 -210 0
181 -210 0
75 -210 0
211 -212 -297 -430 -468 0
-211 468 0
-211 212 0
-211 430 0
-211 297 0
212 -214 -220 -776 0
212 -213 -214 -220 0
-212 220 0
-212 214 0
-212 213 776 0
-17 -103 -145 213 554 0
-213 -554 0
145 -213 0
103 -213 0
17 -213 0
214 217 -760 0
214 -215 217 -218 0
-214 -217 0
-214 215 760 0
-214 218 760 0
215 -216 536 0
-215 -536 0
-215 216 0
216 569 572 758 759 0
-216 -759 0
-216 -758 0
-216 -569 0
-216 -572 0
182 217 804 0
171 217 804 0
215 217 804 0
-217 -804 0
-171 -182 -215 -217 0
-71 218 -219 561 562 0
-218 -561 0
-218 219 0
71 -218 0
-218 -562 0
219 734 735 0
-219 -734 0
-219 -735 0
220 -221 -254 -276 -289 0
-220 289 0
-220 221 0
-220 276 0
-220 254 0
221 -222 -245 -800 0
221 -222 -244 -245 0
-221 245 0
-221 222 0
-221 244 800 0
222 -223 237 239 -240 0
-222 240 0
-222 -239 0
-222 223 0
-222 -237 0
223 224 -230 -795 0
223 224 -228 -230 0
-223 230 0
-223 -224 0
-223 228 795 0
-38 224 -225 -226 -227 0
-224 227 0
38 -224 0
-224 226 0
-224 225 0
225 -635 -636 0
-225 635 0
-225 636 0
226 -615 -616 0
-226 615 0
-226 616 0
-27 227 564 579 637 0
27 -227 0
-227 -637 0
-227 -564 0
-227 -579 0
228 -229 579 745 746 0
-228 229 0
-228 -746 0
-228 -579 0
-228 -745 0
229 783 784 0
-229 -783 0
-229 -784 0
230 231 235 0
230 231 234 0
230 231 236 0
-230 -231 0
-230 -234 -235 -236 0
-27 231 -232 -233 647 0
-231 -647 0
-231 233 0
-231 232 0
27 -231 0
-30 232 -615 -616 0
-232 615 0
-232 616 0
30 -232 0
233 544 563 -645 -646 0
-233 -544 0
-233 646 0
-233 645 0
-233 -563 0
-76 234 535 539 0
76 -234 0
-234 -539 0
-234 -535 0
235 536 560 -664 -665 0
-235 -536 0
-235 665 0
-235 664 0
-235 -560 0
-197 236 572 682 0
197 -236 0
-236 -682 0
-236 -572 0
-13 -124 237 -238 658 0
-237 -658 0
-237 238 0
124 -237 0
13 -237 0
-58 -61 238 567 568 0
-238 -567 0
61 -238 0
58 -238 0
-238 -568 0
84 239 736 0
71 239 736 0
160 239 736 0
-239 -736 0
-71 -84 -160 -239 0
240 241 -726 0
-77 -182 240 241 0
-240 -241 0
182 -240 726 0
77 -240 726 0
-197 -234 241 -242 -243 0
-241 243 0
197 -241 0
-241 242 0
234 -241 0
-174 242 -613 644 0
-242 613 0
-242 -644 0
174 -242 0
243 578 -612 0
-243 -578 0
-243 612 0
-74 -193 -216 244 561 0
-244 -561 0
216 -244 0
193 -244 0
74 -244 0
21 245 -246 250 0
245 -246 250 252 0
-245 246 0
-245 -250 0
-21 -245 -252 0
246 247 -799 0
-105 246 247 570 0
-246 -247 0
-246 -570 799 0
105 -246 799 0
-225 247 -248 -249 695 0
-247 -695 0
-247 249 0
-247 248 0
225 -247 0
-107 248 548 564 565 0
107 -248 0
-248 -565 0
-248 -548 0
-248 -564 0
-49 249 543 563 0
49 -249 0
-249 -563 0
-249 -543 0
-98 -128 -233 250 -251 0
-250 251 0
98 -250 0
233 -250 0
128 -250 0
251 574 575 691 0
-251 -574 0
-251 -691 0
-251 -575 0
-59 252 -253 577 680 0
-252 -577 0
-252 253 0
59 -252 0
-252 -680 0
253 554 566 -670 -671 0
-253 -554 0
-253 671 0
-253 670 0
-253 -566 0
254 -255 259 260 -264 0
-254 264 0
-254 -260 0
-254 255 0
-254 -259 0
255 256 258 0
22 255 256 0
124 255 256 0
-255 -256 0
-22 -124 -255 -258 0
256 -765 777 0
256 -257 -777 0
256 -745 777 0
-256 257 -777 0
-256 745 765 777 0
257 -776 -778 779 0
-257 776 0
-257 778 0
-257 -779 0
-58 -125 258 577 692 0
-258 -577 0
125 -258 0
58 -258 0
-258 -692 0
30 259 791 0
27 259 791 0
86 259 791 0
-259 -791 0
-27 -30 -86 -259 0
-188 260 -261 -262 -263 0
-260 263 0
-260 261 0
-260 262 0
188 -260 0
261 560 561 0
-261 -560 0
-261 -561 0
262 -588 -589 0
-262 588 0
-262 589 0
-66 263 539 562 696 0
66 -263 0
-263 -696 0
-263 -539 0
-263 -562 0
264 265 267 -271 0
248 264 267 -271 0
-264 271 0
-264 -267 0
-248 -264 -265 0
-38 -128 265 -266 657 0
-265 -657 0
-265 266 0
128 -265 0
38 -265 0
266 -625 -626 0
-266 625 0
-266 626 0
-243 267 -268 -269 -270 0
-267 270 0
-267 268 0
-267 269 0
243 -267 0
268 538 539 0
-268 -538 0
-268 -539 0
-78 269 -632 -633 0
-269 632 0
-269 633 0
78 -269 0
270 537 560 -613 634 0
-270 -537 0
-270 -634 0
-270 613 0
-270 -560 0
271 272 274 0
271 272 273 0
271 272 275 0
-271 -272 0
-271 -273 -274 -275 0
182 272 716 0
272 -573 716 0
84 272 716 0
-272 -716 0
-84 -182 -272 573 0
273 561 569 -586 -587 0
-273 -561 0
-273 587 0
-273 586 0
-273 -569 0
274 -612 -613 0
-274 612 0
-274 613 0
-193 275 572 578 614 0
193 -275 0
-275 -614 0
-275 -572 0
-275 -578 0
276 277 279 -283 0
179 276 279 -283 0
-276 283 0
-276 -279 0
-179 -276 -277 0
-235 277 -278 569 666 0
-277 -569 0
-277 278 0
235 -277 0
-277 -666 0
278 -586 -587 0
-278 586 0
-278 587 0
-151 279 -280 -281 -282 0
-279 282 0
-279 280 0
-279 281 0
151 -279 0
280 -648 -649 0
-280 648 0
-280 649 0
281 553 580 650 0
-281 -553 0
-281 -650 0
-281 -580 0
282 -618 -619 0
-282 618 0
-282 619 0
283 284 288 0
66 283 284 0
193 283 284 0
-283 -284 0
-66 -193 -283 -288 0
284 -285 -286 580 620 0
-284 -580 0
-284 286 0
-284 285 0
-284 -620 0
285 571 576 0
-285 -571 0
-285 -576 0
-9 -63 -282 286 -287 0
-286 287 0
9 -286 0
282 -286 0
63 -286 0
287 -596 -597 0
-287 596 0
-287 597 0
-197 -262 288 535 660 0
-288 -535 0
262 -288 0
197 -288 0
-288 -660 0
289 -290 295 -726 0
-192 289 -290 295 0
-289 290 0
-289 -295 0
192 -289 726 0
290 291 294 0
290 291 293 0
13 290 291 0
-290 -291 0
-13 -290 -293 -294 0
-128 -225 291 -292 687 0
-291 -687 0
-291 292 0
225 -291 0
128 -291 0
-105 -107 292 574 0
107 -292 0
105 -292 0
-292 -574 0
-59 293 567 568 694 0
59 -293 0
-293 -694 0
-293 -567 0
-293 -568 0
294 552 566 -598 -599 0
-294 -552 0
-294 599 0
-294 598 0
-294 -566 0
-266 -292 295 -296 675 0
-295 -675 0
292 -295 0
266 -295 0
-295 296 0
296 -667 -668 0
-296 667 0
-296 668 0
297 -298 -340 -361 -382 0
-297 382 0
-297 298 0
-297 361 0
-297 340 0
298 -299 -320 -325 -330 0
-298 330 0
-298 299 0
-298 325 0
-298 320 0
299 -300 -305 -310 -315 0
-299 315 0
-299 300 0
-299 310 0
-299 305 0
300 -301 303 -304 0
300 -301 303 -646 0
-300 301 0
-300 -303 0
-300 304 646 0
301 302 -599 0
301 302 -532 -581 0
-301 -302 0
-301 532 599 0
-301 581 599 0
302 -706 -711 -716 717 0
-302 716 0
-302 -717 0
-302 706 0
-302 711 0
303 541 643 0
303 581 643 0
-303 -643 0
-303 -541 -581 0
304 -550 -581 0
-304 550 0
-304 581 0
305 -306 308 -752 0
305 -306 308 309 0
-305 306 0
-305 -308 0
-305 -309 752 0
306 307 -532 0
306 307 -816 0
306 307 530 0
-306 -307 0
-306 -530 532 816 0
307 -806 -807 -808 809 0
-307 808 0
-307 -809 0
-307 806 0
-307 807 0
308 -720 -723 -726 727 0
-308 726 0
-308 -727 0
-308 720 0
-308 723 0
309 -559 -584 0
-309 559 0
-309 584 0
310 -311 314 -768 0
310 -311 313 314 0
-310 311 0
-310 -314 0
-310 -313 768 0
311 312 -582 0
311 312 -712 0
311 312 527 0
-311 -312 0
-311 -527 582 712 0
312 -527 581 769 0
-312 527 0
-312 -769 0
-312 -581 0
313 -531 -581 0
-313 531 0
-313 581 0
314 -794 -795 -796 797 0
-314 796 0
-314 -797 0
-314 794 0
-314 795 0
315 316 317 -318 0
315 316 -318 -721 0
-315 318 0
-315 -316 0
-315 -317 721 0
316 -584 586 0
316 540 586 0
-316 -586 0
-316 -540 584 0
317 -549 582 0
-317 549 0
-317 -582 0
318 319 -592 0
318 319 -550 -584 0
-318 -319 0
-318 550 592 0
-318 584 592 0
319 -790 -791 -792 793 0
-319 792 0
-319 -793 0
-319 790 0
-319 791 0
320 322 -323 -613 0
320 -321 322 -323 0
-320 323 0
-320 -322 0
-320 321 613 0
321 -531 -584 0
-321 531 0
-321 584 0
322 529 670 0
322 529 608 0
-322 -529 0
-322 -608 -670 0
323 324 581 0
323 324 -703 0
323 324 559 0
-323 -324 0
-323 -559 -581 703 0
324 -558 581 704 0
-324 558 0
-324 -704 0
-324 -581 0
325 326 -328 -636 0
325 326 -327 -328 0
-325 328 0
-325 -326 0
-325 327 636 0
326 -541 -581 714 0
-326 541 0
-326 581 0
-326 -714 0
327 -550 -582 0
-327 550 0
-327 582 0
328 329 -581 0
328 329 -710 0
328 329 549 0
-328 -329 0
-328 -549 581 710 0
329 -772 -773 -774 775 0
-329 774 0
-329 -775 0
-329 772 0
-329 773 0
330 -331 333 334 -335 0
-330 335 0
-330 -334 0
-330 331 0
-330 -333 0
331 332 -588 0
331 332 -527 581 0
-331 -332 0
-331 -581 588 0
-331 527 588 0
332 -527 584 787 0
-332 527 0
-332 -787 0
-332 -584 0
333 -782 -785 -788 789 0
-333 788 0
-333 -789 0
-333 782 0
-333 785 0
334 -810 -811 -812 813 0
-334 812 0
-334 -813 0
-334 810 0
-334 811 0
335 -337 339 -759 0
335 336 -337 339 0
-335 337 0
-335 -339 0
-335 -336 759 0
336 -540 584 0
-336 540 0
-336 -584 0
337 338 582 0
337 338 -705 0
337 338 532 0
-337 -338 0
-337 -532 -582 705 0
338 -754 -757 -760 761 0
-338 760 0
-338 -761 0
-338 754 0
-338 757 0
339 559 649 0
339 581 649 0
-339 -649 0
-339 -559 -581 0
340 -341 -346 -351 -356 0
-340 356 0
-340 341 0
-340 351 0
-340 346 0
341 -342 344 -780 0
341 -342 344 345 0
-341 342 0
-341 -344 0
-341 -345 780 0
342 343 -582 0
342 343 -702 0
342 343 529 0
-342 -343 0
-342 -529 582 702 0
343 -528 699 0
343 529 699 0
-343 -699 0
-343 528 -529 0
344 -583 670 0
344 -583 667 0
-344 583 0
-344 -667 -670 0
345 -532 -584 0
-345 532 0
-345 584 0
346 -348 350 -718 0
346 347 -348 350 0
-346 348 0
-346 -350 0
-346 -347 718 0
347 -558 582 0
-347 558 0
-347 -582 0
348 349 -639 0
348 349 -558 582 0
-348 -349 0
-348 -582 639 0
-348 558 639 0
349 -530 701 0
349 531 701 0
-349 -701 0
-349 530 -531 0
350 -583 664 0
350 527 664 0
-350 -664 0
-350 -527 583 0
351 352 353 -354 0
351 353 -354 -762 0
-351 354 0
-351 -353 0
-351 -352 762 0
352 -532 -581 0
-352 532 0
-352 581 0
353 -530 -582 708 0
-353 530 0
-353 582 0
-353 -708 0
354 355 -602 0
354 355 -531 -582 0
-354 -355 0
-354 531 602 0
-354 582 602 0
355 -764 -767 -770 771 0
-355 770 0
-355 -771 0
-355 764 0
-355 767 0
356 -357 360 -784 0
356 -357 359 360 0
-356 357 0
-356 -360 0
-356 -359 784 0
357 358 584 0
357 358 -783 0
357 358 530 0
-357 -358 0
-357 -530 -584 783 0
358 -529 584 781 0
-358 529 0
-358 -781 0
-358 -584 0
359 -528 584 0
-359 528 0
-359 -584 0
360 -528 582 707 0
-360 528 0
-360 -707 0
-360 -582 0
361 -362 -367 -372 -377 0
-361 377 0
-361 362 0
-361 372 0
-361 367 0
362 -363 366 -598 0
362 -363 -365 366 0
-362 363 0
-362 -366 0
-362 365 598 0
363 364 -589 0
363 364 -531 -581 0
-363 -364 0
-363 531 589 0
-363 581 589 0
364 541 587 0
364 584 587 0
-364 -587 0
-364 -541 -584 0
365 -529 581 0
-365 529 0
-365 -581 0
366 -730 -733 -736 737 0
-366 736 0
-366 -737 0
-366 730 0
-366 733 0
367 -369 371 -648 0
367 -368 -369 371 0
-367 369 0
-367 -371 0
-367 368 648 0
368 -558 581 0
-368 558 0
-368 -581 0
369 370 584 0
369 370 -758 0
369 370 541 0
-369 -370 0
-369 -541 -584 758 0
370 -802 -803 -804 805 0
-370 804 0
-370 -805 0
-370 802 0
-370 803 0
371 -738 -739 -740 741 0
-371 740 0
-371 -741 0
-371 738 0
-371 739 0
372 373 374 -375 0
372 373 -375 -814 0
-372 375 0
-372 -373 0
-372 -374 814 0
373 -582 635 0
373 549 635 0
-373 -635 0
-373 -549 582 0
374 527 -528 0
-374 -527 0
-374 528 0
375 376 -583 0
375 376 -623 -626 0
-375 -376 0
-375 583 626 0
-375 583 623 0
376 -666 673 0
376 -669 673 0
-376 -673 0
-376 666 669 0
377 -378 380 -381 0
377 -378 380 -632 0
-377 378 0
-377 -380 0
-377 381 632 0
378 379 -618 0
378 379 -529 584 0
-378 -379 0
-378 -584 618 0
-378 529 618 0
379 -584 596 0
379 558 596 0
-379 -596 0
-379 -558 584 0
380 559 638 0
380 582 638 0
-380 -638 0
-380 -559 -582 0
381 -541 -582 0
-381 541 0
-381 582 0
382 -383 -388 -393 -399 0
-382 399 0
-382 383 0
-382 393 0
-382 388 0
383 384 385 386 387 0
-383 -387 0
-383 -386 0
-383 -384 0
-383 -385 0
384 582 605 0
384 528 582 606 0
-384 -582 0
-384 -528 -605 0
-384 -605 -606 0
385 -678 681 0
385 -679 681 0
385 -680 681 0
-385 -681 0
-385 678 679 680 0
386 -590 601 0
386 -595 601 0
386 -600 601 0
-386 -601 0
-386 590 595 600 0
387 -624 631 0
387 -627 631 0
387 -630 631 0
-387 -631 0
-387 624 627 630 0
388 -389 391 818 0
388 -389 391 392 0
-388 389 0
-388 -391 0
-388 -392 -818 0
389 390 -785 0
-229 389 390 709 0
-389 -390 0
-389 -709 785 0
229 -389 785 0
390 -722 791 0
229 390 791 0
390 -721 791 0
-390 -791 0
-229 -390 721 722 0
391 -674 677 0
391 -675 677 0
391 -676 677 0
-391 -677 0
-391 674 675 676 0
392 581 582 583 584 0
-392 -584 0
-392 -583 0
-392 -581 0
-392 -582 0
393 394 396 397 398 0
-393 -398 0
-393 -397 0
-393 -394 0
-393 -396 0
148 394 803 0
131 394 803 0
394 395 803 0
-394 -803 0
-131 -148 -394 -395 0
-86 395 707 708 755 0
86 -395 0
-395 -755 0
-395 -707 0
-395 -708 0
396 -656 659 0
396 -657 659 0
396 -658 659 0
-396 -659 0
-396 656 657 658 0
397 -634 641 0
397 -637 641 0
397 -640 641 0
-397 -641 0
-397 634 637 640 0
398 -660 663 0
398 -661 663 0
398 -662 663 0
-398 -663 0
-398 660 661 662 0
399 -400 -411 -416 -420 0
-399 420 0
-399 400 0
-399 416 0
-399 411 0
400 -401 -407 -409 -410 0
-400 410 0
-400 401 0
-400 409 0
-400 407 0
401 -402 405 -406 0
401 -402 405 -591 0
-401 402 0
-401 -405 0
-401 406 591 0
402 403 -404 -530 0
402 403 -404 -605 0
-402 404 0
-402 -403 0
-402 530 605 0
403 540 642 0
-403 -540 0
-403 -642 0
404 -651 672 0
404 650 -673 0
404 650 672 0
404 -651 -673 0
-404 -650 651 0
-404 -672 673 0
405 -541 -582 725 0
-405 541 0
-405 582 0
-405 -725 0
406 -549 584 0
-406 549 0
-406 -584 0
407 -408 -629 0
407 -408 -559 -583 0
-407 408 0
-407 559 629 0
-407 583 629 0
408 -549 -693 0
408 -645 690 0
408 -549 690 0
408 -645 -693 0
-408 549 645 0
-408 -690 693 0
409 -528 -623 0
409 -541 -667 0
409 -528 -541 0
409 -623 -667 0
-409 541 623 0
-409 528 667 0
410 -550 -711 0
410 544 -626 0
410 544 -550 0
410 -626 -711 0
-410 -544 711 0
-410 550 626 0
411 -412 414 -724 0
411 -412 414 415 0
-411 412 0
-411 -414 0
-411 -415 724 0
412 413 -665 0
412 413 -531 -583 0
-412 -413 0
-412 531 665 0
-412 583 665 0
413 532 619 0
413 584 619 0
-413 -619 0
-413 -532 -584 0
414 530 668 0
414 583 668 0
-414 -668 0
-414 -530 -583 0
415 -540 582 0
-415 540 0
-415 -582 0
327 416 417 -418 0
416 417 -418 -722 0
-416 418 0
-416 -417 0
-327 -416 722 0
417 -529 581 763 0
-417 529 0
-417 -763 0
-417 -581 0
418 419 -625 0
418 419 -549 583 0
-418 -419 0
-418 -583 625 0
-418 549 625 0
419 -581 645 0
419 -581 642 0
-419 581 0
-419 -642 -645 0
420 -421 -426 428 429 0
-420 426 0
-420 -429 0
-420 421 0
-420 -428 0
421 422 423 424 425 0
-421 -425 0
-421 -424 0
-421 -422 0
-421 -423 0
422 -614 621 0
422 -617 621 0
422 -620 621 0
-422 -621 0
-422 614 617 620 0
423 -543 807 0
423 -545 807 0
423 -547 807 0
-423 -807 0
-423 543 545 547 0
424 -604 611 0
424 -607 611 0
424 -610 611 0
-424 -611 0
-424 604 607 610 0
425 -652 655 0
425 -653 655 0
425 -654 655 0
-425 -655 0
-425 652 653 654 0
426 427 -585 0
-392 426 427 0
-426 -427 0
392 -426 585 0
427 -682 685 0
427 -683 685 0
427 -684 685 0
-427 -685 0
-427 682 683 684 0
428 -694 697 0
428 -695 697 0
428 -696 697 0
-428 -697 0
-428 694 695 696 0
429 -686 689 0
429 -687 689 0
429 -688 689 0
-429 -689 0
-429 686 687 688 0
430 -431 -436 -439 -451 0
-430 451 0
-430 431 0
-430 439 0
-430 436 0
431 432 435 0
37 431 432 0
98 431 432 0
-431 -432 0
-37 -98 -431 -435 0
-37 -130 432 -433 -434 0
-432 434 0
37 -432 0
-432 433 0
130 -432 0
433 564 565 0
-433 -564 0
-433 -565 0
434 545 548 669 0
-434 -545 0
-434 -669 0
-434 -548 0
-225 435 564 575 679 0
225 -435 0
-435 -679 0
-435 -564 0
-435 -575 0
436 437 438 0
62 235 436 0
235 436 438 0
62 436 437 0
-235 -436 -437 0
-62 -436 -438 0
-76 -269 437 573 678 0
-437 -573 0
269 -437 0
76 -437 0
-437 -678 0
-61 -294 438 567 654 0
-438 -567 0
294 -438 0
61 -438 0
-438 -654 0
439 -440 446 448 0
439 -440 447 448 0
-439 440 0
-439 -448 0
-439 -446 -447 0
440 441 444 0
22 440 441 0
124 440 441 0
-440 -441 0
-22 -124 -440 -444 0
-58 -124 441 -442 610 0
-441 -610 0
-441 442 0
124 -441 0
58 -441 0
-9 442 -443 554 0
-442 443 0
9 -442 0
-442 -554 0
443 567 571 -596 -597 0
-443 -567 0
-443 597 0
-443 596 0
-443 -571 0
-61 444 -445 567 580 0
-444 -567 0
-444 445 0
61 -444 0
-444 -580 0
-282 445 577 630 0
282 -445 0
-445 -630 0
-445 -577 0
-86 -88 446 574 575 0
-446 -574 0
88 -446 0
86 -446 0
-446 -575 0
-226 -266 447 579 627 0
-447 -579 0
266 -447 0
226 -447 0
-447 -627 0
-161 -189 448 -449 -450 0
-448 450 0
161 -448 0
-448 449 0
189 -448 0
-174 449 -622 -623 0
-449 622 0
-449 623 0
174 -449 0
-67 450 562 656 0
67 -450 0
-450 -656 0
-450 -562 0
451 452 453 -456 -460 0
-451 -452 0
-451 460 0
-451 456 0
-451 -453 0
-105 -130 -232 452 617 0
-452 -617 0
232 -452 0
130 -452 0
105 -452 0
-273 453 -454 -455 590 0
-453 -590 0
-453 455 0
273 -453 0
-453 454 0
454 536 560 0
-454 -536 0
-454 -560 0
-262 455 534 538 539 0
262 -455 0
-455 -539 0
-455 -534 0
-455 -538 0
456 457 459 0
455 456 457 0
-456 -457 0
-455 -456 -459 0
-76 -274 -449 457 -458 0
-457 458 0
76 -457 0
449 -457 0
274 -457 0
458 561 573 578 624 0
-458 -624 0
-458 -578 0
-458 -561 0
-458 -573 0
-67 -191 -261 459 652 0
-459 -652 0
191 -459 0
261 -459 0
67 -459 0
460 461 463 -465 0
253 460 463 -465 0
-460 465 0
-460 -463 0
-253 -460 -461 0
-443 461 -462 576 672 0
-461 -576 0
443 -461 0
-461 462 0
-461 -672 0
462 557 568 0
-462 -557 0
-462 -568 0
-49 -199 -266 463 -464 0
-463 464 0
49 -463 0
266 -463 0
199 -463 0
-86 464 543 653 0
86 -464 0
-464 -653 0
-464 -543 0
294 465 466 0
465 466 -600 0
442 465 466 0
-465 -466 0
-294 -442 -465 600 0
-189 466 -467 569 604 0
-466 -569 0
-466 467 0
189 -466 0
-466 -604 0
-78 -268 -278 -454 467 0
278 -467 0
78 -467 0
454 -467 0
268 -467 0
468 -469 -489 -509 -517 0
-468 517 0
-468 469 0
-468 509 0
-468 489 0
469 -470 -475 -479 -484 0
-469 484 0
-469 470 0
-469 479 0
-469 475 0
470 472 -473 -612 0
470 -471 472 -473 0
-470 473 0
-470 -472 0
-470 471 612 0
471 -527 584 0
-471 527 0
-471 -584 0
472 -527 698 0
472 528 698 0
-472 -698 0
-472 527 -528 0
473 474 -633 0
473 474 -540 582 0
-473 -474 0
-473 -582 633 0
-473 540 633 0
474 -531 -582 713 0
-474 531 0
-474 582 0
-474 -713 0
475 -476 478 -756 0
406 475 -476 478 0
-475 476 0
-475 -478 0
-406 -475 756 0
476 477 -603 0
476 477 -527 582 0
-476 -477 0
-476 -582 603 0
-476 527 603 0
477 -584 615 0
477 528 615 0
-477 -615 0
-477 -528 584 0
478 530 616 0
478 584 616 0
-478 -616 0
-478 -530 -584 0
479 -480 482 -483 0
479 -480 482 -593 0
-479 480 0
-479 -482 0
-479 483 593 0
480 481 -671 0
480 481 -532 -583 0
-480 -481 0
-480 532 671 0
-480 583 671 0
481 -532 700 0
481 530 700 0
-481 -700 0
-481 -530 532 0
482 -691 693 0
482 -692 693 0
-482 -693 0
-482 691 692 0
483 -528 581 0
-483 528 0
-483 -581 0
484 -485 488 -622 0
484 -485 -487 488 0
-484 485 0
-484 -488 0
-484 487 622 0
485 486 -581 0
485 486 -715 0
485 486 540 0
-485 -486 0
-485 -540 581 715 0
486 -644 651 0
486 -647 651 0
-486 -651 0
-486 644 647 0
487 -540 583 0
-487 540 0
-487 -583 0
488 -583 628 0
488 558 628 0
-488 -628 0
-488 -558 583 0
489 -490 -495 -500 -505 0
-489 505 0
-489 490 0
-489 500 0
-489 495 0
490 491 492 -493 0
490 492 -493 -755 0
-490 493 0
-490 -492 0
-490 -491 755 0
491 -550 -584 0
-491 550 0
-491 584 0
492 -540 583 748 0
-492 540 0
-492 -748 0
-492 -583 0
493 494 583 0
493 494 -734 0
493 494 531 0
-493 -494 0
-493 -531 -583 734 0
494 -533 750 0
494 -536 750 0
-494 -750 0
-494 533 536 0
495 -497 499 -753 0
495 496 -497 499 0
-495 497 0
-495 -499 0
-495 -496 753 0
496 -558 584 0
-496 558 0
-496 -584 0
497 498 581 0
497 498 -709 0
497 498 550 0
-497 -498 0
-497 -550 -581 709 0
498 -531 -584 786 0
-498 531 0
-498 584 0
-498 -786 0
499 -582 608 0
499 -582 606 0
-499 582 0
-499 -606 -608 0
500 501 502 -503 0
500 502 -503 -765 0
-500 503 0
-500 -502 0
-500 -501 765 0
501 -530 -581 0
-501 530 0
-501 581 0
502 559 597 0
502 584 597 0
-502 -597 0
-502 -559 -584 0
503 504 -594 0
503 504 -530 -581 0
-503 -504 0
-503 530 594 0
-503 581 594 0
504 532 609 0
504 582 609 0
-504 -609 0
-504 -532 -582 0
505 -506 508 -766 0
483 505 -506 508 0
-505 506 0
-505 -508 0
-483 -505 766 0
506 507 582 0
506 507 -719 0
506 507 559 0
-506 -507 0
-506 -559 -582 719 0
507 530 -531 817 0
-507 -530 0
-507 531 0
-507 -817 0
508 528 -529 815 0
-508 -528 0
-508 529 0
-508 -815 0
509 510 -512 -795 0
-446 509 510 -512 0
-509 512 0
-509 -510 0
446 -509 795 0
-18 -59 510 -511 640 0
-510 -640 0
-510 511 0
59 -510 0
18 -510 0
-124 -282 511 567 580 0
-511 -567 0
282 -511 0
124 -511 0
-511 -580 0
512 515 -807 0
512 -513 -514 515 0
-512 -515 0
-512 514 807 0
-512 513 807 0
513 564 570 765 766 0
-513 -766 0
-513 -765 0
-513 -564 0
-513 -570 0
514 548 563 755 756 0
-514 -756 0
-514 -755 0
-514 -548 0
-514 -563 0
229 515 799 0
30 515 799 0
515 516 799 0
-515 -799 0
-30 -229 -515 -516 0
516 755 756 0
-516 -755 0
-516 -756 0
517 518 520 -521 -523 0
-517 -518 0
-517 523 0
-517 521 0
-517 -520 0
518 519 583 0
518 -527 583 735 0
-518 -583 0
-518 -519 527 0
-518 -519 -735 0
519 549 558 0
519 -743 -745 0
519 558 -745 0
519 549 -743 0
-519 -558 743 0
-519 -549 745 0
520 -798 -799 -800 801 0
-520 800 0
-520 -801 0
-520 798 0
-520 799 0
521 522 583 0
521 522 -749 0
521 522 541 0
-521 -522 0
-521 -541 -583 749 0
522 -744 -747 -750 751 0
-522 750 0
-522 -751 0
-522 744 0
-522 747 0
523 524 -818 0
523 524 -525 -526 0
-523 -524 0
-523 525 818 0
-523 526 818 0
184 524 740 0
69 524 740 0
219 524 740 0
-524 -740 0
-69 -184 -219 -524 0
525 751 761 771 775 0
-525 -775 0
-525 -771 0
-525 -751 0
-525 -761 0
526 717 727 737 741 0
-526 -741 0
-526 -737 0
-526 -717 0
-526 -727 0
1 -2 0
-1 2 0
819 0

